words_hard_train/1831.qaiger
aag 101 16 0 1 85
2
4
8
16
20
28
34
40
62
72
98
118
128
148
158
176
202
6 3 5
10 7 8
12 6 9
14 11 13
18 14 16
22 13 20
24 12 21
26 23 25
30 27 28
32 19 31
36 2 35
38 37 4
42 38 40
44 2 5
46 43 45
48 35 41
50 47 49
52 15 17
54 50 53
56 32 55
58 26 29
60 57 59
64 61 63
66 44 9
68 26 67
70 66 21
74 25 72
76 24 73
78 75 77
80 71 79
82 70 78
84 81 83
86 68 84
88 69 85
90 87 89
92 65 91
94 60 62
96 93 95
100 82 99
102 77 98
104 76 99
106 103 105
108 107 83
110 101 109
112 111 89
114 110 88
116 113 115
120 116 119
122 97 121
124 117 118
126 123 125
130 105 128
132 104 129
134 131 133
136 134 109
138 135 108
140 137 139
142 141 115
144 140 114
146 143 145
150 146 149
152 127 151
154 147 148
156 153 155
160 132 159
162 133 158
164 161 163
166 114 137
168 167 139
170 164 169
172 165 168
174 171 173
178 174 177
180 156 179
182 175 176
184 181 183
186 149 176
188 186 48
190 63 119
192 17 29
194 190 192
196 188 194
198 184 196
200 185 197
202 199 201
i0 1 x2[0]
i1 1 x2[1]
i2 1 x2[2]
i3 2 y1[2]
i4 1 x2[3]
i5 2 y1[3]
i6 2 y1[0]
i7 2 y1[1]
i8 2 y1[4]
i9 1 x2[4]
i10 1 x2[5]
i11 2 y1[5]
i12 1 x2[6]
i13 2 y1[6]
i14 1 x2[7]
i15 2 y1[7]
o0 bv[0]
c
simplified
  >=
    add
      247
      subtract
        -159
        1 x2
    unary minus
      2 y1
