words_hard_train/1831.qaiger.qdimacs
p cnf 101 256
a 64 1 2 4 36 10 79 49 0
e 3 5 6 7 8 9 11 12 13 14 15 16 17 18 19 20 21 22 23 24 25 26 27 28 29 30 31 32 33 34 35 37 38 39 40 41 42 43 44 45 46 47 48 50 51 52 53 54 55 56 57 58 59 60 61 62 63 65 66 67 68 69 70 71 72 73 74 75 76 77 78 80 81 82 83 84 85 86 87 88 89 90 91 92 93 94 95 96 97 98 99 100 101 0
1 2 3 0
-1 -3 0
-2 -3 0
3 -4 5 0
-3 -5 0
4 -5 0
-3 4 6 0
3 -6 0
-4 -6 0
5 6 7 0
-5 -7 0
-6 -7 0
-7 -8 9 0
7 -9 0
8 -9 0
6 -10 11 0
-6 -11 0
10 -11 0
-6 10 12 0
6 -12 0
-10 -12 0
11 12 13 0
-11 -13 0
-12 -13 0
13 -14 15 0
-13 -15 0
14 -15 0
9 15 16 0
-9 -16 0
-15 -16 0
-1 17 18 0
1 -18 0
-17 -18 0
18 -2 19 0
-18 -19 0
2 -19 0
-19 -20 21 0
19 -21 0
20 -21 0
-1 2 22 0
1 -22 0
-2 -22 0
21 22 23 0
-21 -23 0
-22 -23 0
17 20 24 0
-17 -24 0
-20 -24 0
23 24 25 0
-23 -25 0
-24 -25 0
7 8 26 0
-7 -26 0
-8 -26 0
-25 26 27 0
25 -27 0
-26 -27 0
-16 27 28 0
16 -28 0
-27 -28 0
-13 14 29 0
13 -29 0
-14 -29 0
28 29 30 0
-28 -30 0
-29 -30 0
30 31 32 0
-30 -32 0
-31 -32 0
-22 4 33 0
22 -33 0
-4 -33 0
-13 33 34 0
13 -34 0
-33 -34 0
-33 10 35 0
33 -35 0
-10 -35 0
12 -36 37 0
-12 -37 0
36 -37 0
-12 36 38 0
12 -38 0
-36 -38 0
37 38 39 0
-37 -39 0
-38 -39 0
35 39 40 0
-35 -40 0
-39 -40 0
-35 -39 41 0
35 -41 0
39 -41 0
40 41 42 0
-40 -42 0
-41 -42 0
-34 -42 43 0
34 -43 0
42 -43 0
34 42 44 0
-34 -44 0
-42 -44 0
43 44 45 0
-43 -45 0
-44 -45 0
32 45 46 0
-32 -46 0
-45 -46 0
-30 -31 47 0
30 -47 0
31 -47 0
46 47 48 0
-46 -48 0
-47 -48 0
-41 49 50 0
41 -50 0
-49 -50 0
38 -49 51 0
-38 -51 0
49 -51 0
-38 49 52 0
38 -52 0
-49 -52 0
51 52 53 0
-51 -53 0
-52 -53 0
53 41 54 0
-53 -54 0
-41 -54 0
50 54 55 0
-50 -55 0
-54 -55 0
55 44 56 0
-55 -56 0
-44 -56 0
-55 -44 57 0
55 -57 0
44 -57 0
56 57 58 0
-56 -58 0
-57 -58 0
-58 59 60 0
58 -60 0
-59 -60 0
48 60 61 0
-48 -61 0
-60 -61 0
58 -59 62 0
-58 -62 0
59 -62 0
61 62 63 0
-61 -63 0
-62 -63 0
52 -64 65 0
-52 -65 0
64 -65 0
-52 64 66 0
52 -66 0
-64 -66 0
65 66 67 0
-65 -67 0
-66 -67 0
-67 54 68 0
67 -68 0
-54 -68 0
67 -54 69 0
-67 -69 0
54 -69 0
68 69 70 0
-68 -70 0
-69 -70 0
70 57 71 0
-70 -71 0
-57 -71 0
-70 -57 72 0
70 -72 0
57 -72 0
71 72 73 0
-71 -73 0
-72 -73 0
-73 74 75 0
73 -75 0
-74 -75 0
63 75 76 0
-63 -76 0
-75 -76 0
73 -74 77 0
-73 -77 0
74 -77 0
76 77 78 0
-76 -78 0
-77 -78 0
-66 79 80 0
66 -80 0
-79 -80 0
66 -79 81 0
-66 -81 0
79 -81 0
80 81 82 0
-80 -82 0
-81 -82 0
-57 68 83 0
57 -83 0
-68 -83 0
83 69 84 0
-83 -84 0
-69 -84 0
-82 84 85 0
82 -85 0
-84 -85 0
82 -84 86 0
-82 -86 0
84 -86 0
85 86 87 0
-85 -87 0
-86 -87 0
-87 88 89 0
87 -89 0
-88 -89 0
-78 89 90 0
78 -90 0
-89 -90 0
87 -88 91 0
-87 -91 0
88 -91 0
90 91 92 0
-90 -92 0
-91 -92 0
74 -88 93 0
-74 -93 0
88 -93 0
-93 -24 94 0
93 -94 0
24 -94 0
31 59 95 0
-31 -95 0
-59 -95 0
8 14 96 0
-8 -96 0
-14 -96 0
-95 -96 97 0
95 -97 0
96 -97 0
-94 -97 98 0
94 -98 0
97 -98 0
-92 -98 99 0
92 -99 0
98 -99 0
92 98 100 0
-92 -100 0
-98 -100 0
99 100 101 0
-99 -101 0
-100 -101 0
101 0
